%chk=ACC.chk
%nproc=40
%mem=40GB
#p opt m062x def2svp em(gd3) scrf(pcm,solvent=diphenylether) freq

ACC generated by CoordMagic

0 1
C     -1.62220    -0.49080    -0.18300    
C     -0.72870    -1.38820    0.28580     
C     0.55740     -1.10230    0.53980     
C     1.10950     0.11620     0.35650     
C     0.22270     1.02360     -0.11250    
C     -1.07980    0.73410     -0.36980    
N     0.51550     2.23140     -0.35880    
S     -0.79420    3.14400     -0.93780    
N     -1.72870    1.73270     -0.80220    
C     -2.91530    -0.83870    -0.42290    
C     2.42170     0.34730     0.63110     
C     -3.92960    -0.08140    -0.88660    
C     -5.06970    -0.77020    -0.99650    
C     -4.83680    -2.02220    -0.60210    
S     -3.44660    -2.20270    -0.19560    
S     3.34110     -0.69460    1.14410     
C     4.57940     0.06970     1.25700     
C     4.40640     1.33530     0.87540     
C     3.13030     1.48760     0.50840     
H     -1.00470    -2.43630    0.49440     
H     1.14090     -1.95950    0.91800     
H     -3.92570    0.97670     -1.16840    
H     -6.03250    -0.37650    -1.34990    
H     -5.58560    -2.82520    -0.58060    
H     5.52670     -0.35690    1.61300     
H     5.18050     2.11490     0.86550     
H     2.79730     2.47110     0.16090     




