%chk=DON.chk
%nproc=40
%mem=40GB
#p opt b3lyp def2svp em(gd3bj) scrf(pcm,solvent=diphenylether) freq

DON_sol generated by CoordMagic

0 1
C     2.88810     0.26190     -0.28790    
C     2.51690     -1.00320    -0.02770    
C     1.24030     -1.31750    0.26760     
C     0.39690     -0.26430    0.27320     
C     0.76810     1.00090     0.01320     
C     2.04510     1.31540     -0.28050    
C     4.20290     0.28220     -0.54660    
C     4.73090     -0.94920    -0.46730    
S     3.67020     -1.90230    -0.11900    
C     -0.91860    -0.28500    0.52860     
C     -1.44680    0.94610     0.44750     
S     -0.38550    1.89980     0.10250     
C     2.60860     2.69820     -0.59490    
C     1.73270     3.96100     -0.61500    
C     2.55120     5.21900     -0.96030    
C     1.67550     6.47940     -0.98220    
C     0.67740     -2.70000    0.58480     
C     1.55870     -3.95830    0.63260     
C     0.74270     -5.21430    0.99070     
C     1.62370     -6.47020    1.04100     
C     6.01880     -1.30170    -0.66700    
C     -2.73560    1.29800     0.64270     
C     6.52850     -2.54440    -0.58340    
C     7.83950     -2.53170    -0.84210    
C     8.20300     -1.27190    -1.09930    
S     7.07990     -0.33740    -1.01700    
C     -3.24580    2.54040     0.55690     
C     -4.55770    2.52690     0.81060     
C     -4.92140    1.26700     1.06670     
S     -3.79730    0.33320     0.98910     
H     4.77430     1.18760     -0.79220    
H     -1.49040    -1.19070    0.77190     
H     3.41840     2.89140     0.15080     
H     3.08070     2.62990     -1.60560    
H     0.93010     3.85780     -1.38360    
H     1.27080     4.12270     0.38800     
H     3.36790     5.35510     -0.21150    
H     3.03410     5.09290     -1.95890    
H     2.27970     7.38180     -1.23230    
H     0.86550     6.39320     -1.74220    
H     1.19890     6.65530     0.00920     
H     0.19110     -2.62500    1.58830     
H     -0.12130    -2.90270    -0.17020    
H     2.03010     -4.13450    -0.36350    
H     2.35410     -3.83870    1.40630     
H     0.25030     -5.07460    1.98290     
H     -0.06680    -5.36600    0.23690     
H     1.02120     -7.37100    1.30060     
H     2.10990     -6.66000    0.05690     
H     2.42640     -6.36790    1.80670     
H     5.98130     -3.46640    -0.34040    
H     8.50400     -3.40620    -0.84350    
H     9.22660     -0.95890    -1.34620    
H     -2.69820    3.46260     0.31560     
H     -5.22290    3.40090     0.80900     
H     -5.94580    0.95330     1.30950     



