%chk=PPI.chk
%nproc=40
%mem=40GB
#p opt b3lyp def2svp em(gd3bj) scrf(pcm,solvent=diphenylether) freq

PPI

0 1
C            -3.115540    0.414387   -0.000407
C            -3.374792   -0.992851    0.000289
C            -4.658327   -1.538723    0.000453
C            -5.723855   -0.612160    0.000055
C            -5.465955    0.794213   -0.000586
C            -4.180296    1.340759   -0.000937
C            -1.708662    0.696810   -0.000429
C            -0.913907   -0.424369    0.000184
S            -1.871161   -1.910052    0.000917
C            -7.138876   -0.893139    0.000226
C            -7.907367    0.231762   -0.000241
S            -6.973067    1.707729   -0.000869
C            -3.919016    2.822147   -0.001462
C            -4.917639   -3.020866    0.001270
C             0.528206   -0.503994    0.000320
C             1.331810   -1.632880    0.000288
C             2.717115   -1.342202    0.000379
C             2.999749    0.015268    0.000527
S             1.507988    0.942479    0.000505
C             4.290384    0.690788    0.000710
C             5.538284   -0.039895   -0.000158
C             6.811964    0.672891    0.000014
C             6.851549    2.096062    0.001051
C             5.650321    2.763074    0.001866
C             4.403366    2.075429    0.001707
N             5.690649   -1.366461   -0.001191
S             7.301961   -1.679402   -0.001954
N             7.872539   -0.142215   -0.000893
H            -1.298783    1.707095   -0.000882
H            -7.556653   -1.899940    0.000725
H            -8.995127    0.291965   -0.000200
H            -3.333866    3.122528   -0.886054
H            -4.851982    3.402563   -0.005538
H            -3.340473    3.124300    0.886914
H            -3.983888   -3.600321   -0.001071
H            -5.496520   -3.322839    0.889361
H            -5.501062   -3.323027   -0.883745
H             0.927624   -2.646018    0.000153
H             3.504056   -2.092326    0.000316
H             7.811027    2.613548    0.001174
H             5.636259    3.855171    0.002682
H             3.494442    2.680927    0.002450



